75 
300 
-0.5 0 0 0
0.5 0 0 -22
-7 -7 -35 -91
-7 -5 35 -19
-7 -3 35 -11
-7 -1 35 -12
-7 1 -35 -88
-7 3 35 -18
-7 5 35 -24
-7 7 35 -24
-5 -7 35 -24
-5 -5 -25 -78
-5 -3 -25 -91
-5 -1 -25 -133
-5 1 -25 -115
-5 3 -25 -97
-5 5 25 -20
-5 7 -35 -71
-3 -7 35 -19
-3 -5 -25 -118
-3 -3 15 -12
-3 -1 -15 -85
-3 1 15 -19
-3 3 -15 -121
-3 5 25 -20
-3 7 35 -11
-1 -7 -35 -106
-1 -5 25 -25
-1 -3 -15 -110
-1 -1 5 -15
-1 1 5 -13
-1 3 15 -28
-1 5 -25 -99
-1 7 -35 -83
1 -7 35 -10
1 -5 25 -13
1 -3 -15 -87
1 -1 5 -23
1 1 -5 -88
1 3 -15 -79
1 5 -25 -78
1 7 -35 -139
3 -7 -35 -65
3 -5 25 -14
3 -3 15 -10
3 -1 -15 -107
3 1 -15 -125
3 3 -15 -120
3 5 25 -19
3 7 35 -26
5 -7 -35 -133
5 -5 25 -17
5 -3 25 -20
5 -1 25 -15
5 1 -25 -76
5 3 25 -26
5 5 -25 -128
5 7 -35 -100
7 -7 -35 -111
7 -5 -35 -132
7 -3 -35 -82
7 -1 35 -14
7 1 35 -22
7 3 -35 -107
7 5 35 -24
7 7 35 -23
